%%% Exp_DoseResponse conditions	%%%
%% Description: Half the number of concentrations in pl-example01
%% Produces 2 plates.
%% 2021/Jan/13: It takes about 5sec 23msec

%% Plate dimentions: (this is a 96-well plate)
num_rows = 8; %% height
num_cols = 12; %% width

horizontal_cell_lines = 1;
vertical_cell_lines = 1;

allow_empty_wells = false;
size_empty_edge = 1;

% New and used!
concentrations_on_different_rows = true;
concentrations_on_different_columns = true;

% New and unused! (Restriction: replicates_on_different_plates /\ replicates_on_same_plate == false)
replicates_on_different_plates = true;
replicates_on_same_plate = false;

%%% Compounds %%%
compounds = 10; %% number of drugs/compounds
compound_concentrations	 = [ 4 | i in 1..compounds]; 
compound_replicates	 = [ 2 | i in 1..compounds];

compound_names = ["comp\(i)" | i in 1..compounds];

compound_concentration_names = [|"a0.3", "a1", "a3", "a5"
|"b0.3", "b1", "b3", "b5"
|"c0.3", "c1", "c3", "c5"
|"d0.3", "d1", "d3", "d5"
|"e0.3", "e1", "e3", "e5"
|"f0.3", "f1", "f3", "f5"
|"g0.3", "g1", "g3", "g5"
|"h0.3", "h1", "h3", "h5"
|"i0.3", "i1", "i3", "i5"
|"j0.3", "j1", "j3", "j5"|];

compound_concentration_indicators = ["" | i in 1..max(compound_concentrations)]; 


%%% Combinations %%%
combinations = 	0;
combination_names = [];
combination_concentration_names = [];
combination_concentrations = 0;


%%% Controls %%%
num_controls = 4;
control_replicates = [16,8,8,8];
control_concentrations = [1,1,1,1];
control_names = ["pos","neg","blank","dmso"];
control_concentration_names =  array2d(1..num_controls, 1..1,["cont\(i)-conc\(1)" | i in 1..num_controls]);
  
